SAT
-30 -91 -40 86 21 27 -84 -90 -7 58 -45 -38 99 -94 89 -1 83 77 96 -92 -46 -32 -16 -47 37 19 20 54 82 24 -3 -15 5 -68 63 -72 -48 -31 -36 -85 -44 -8 -71 14 -11 66 49 70 43 -26 42 35 -79 50 25 -52 -12 69 -80 -17 -10 34 -55 -13 -95 64 -9 33 67 -29 -60 78 75 -4 -76 53 39 100 51 23 -41 93 -28 88 -81 62 74 -65 -98 2 -57 -6 -73 -18 -97 61 -22 59 56 87 0
